QuantityOfClients = 4;
ClientsDemand = [0,4,2,2,2];
wtot = 10;
Distance = [
[0,2907,30571,12313,4609],
[2907,0,10445,4390,3402],
[30571,10445,0,23640,27180],
[12313,4390,23640,0,12901],
[4609,3402,27180,12901,0]
];
